letting n =  10
letting blocks =  [[1, 1], [1, 6], [2, 4], [2, 8], [2, 9], [4, 6], [5, 5], [5, 6], [5, 9], [5, 10], [6, 1], [6, 3], [7, 3], [7, 5], [7, 9], [8, 2], [8, 9], [9, 6], [9, 7], [10, 5], [10, 9], [10, 10]]
